<number of tasks>
50

<cycle time>
1000

<order strength>
0.198


<task times>
1 75
2 196
3 154
4 25
5 74
6 59
7 187
8 136
9 167
10 148
11 233
12 181
13 112
14 108
15 282
16 116
17 29
18 102
19 95
20 75
21 121
22 201
23 176
24 30
25 42
26 129
27 39
28 138
29 47
30 291
31 160
32 49
33 47
34 67
35 179
36 83
37 218
38 106
39 85
40 155
41 167
42 60
43 45
44 67
45 35
46 155
47 138
48 27
49 134
50 51

<precedence relations>
1,22
2,5
2,9
2,10
2,12
3,4
3,6
3,7
3,8
3,11
4,22
5,22
6,14
6,15
6,16
6,17
7,28
8,13
8,18
8,50
10,20
11,13
11,19
11,21
13,22
14,24
15,25
16,23
17,26
18,29
19,27
20,28
21,49
22,30
22,31
22,32
22,33
22,34
23,35
24,36
25,38
27,37
29,49
30,41
33,43
33,44
34,42
35,41
36,40
37,39
37,44
39,45
40,46
41,48
43,47
44,49
45,49
46,50

<end>
